(set-info :source |printed by MathSAT|)
(declare-fun call_ticket3i.ite4 () Int)
(declare-fun call_ticket3i.g2 () Bool)
(declare-fun a1 () Int)
(declare-fun call_ticket3i.ite36 () Int)
(declare-fun p1 () Int)
(declare-fun call_ticket3i.g5 () Bool)
(declare-fun param_init_a3 () Int)
(declare-fun call_ticket3i.ite7 () Int)
(declare-fun p3 () Int)
(declare-fun call_ticket3i.t () Int)
(declare-fun call_ticket3i.g9 () Bool)
(declare-fun call_Sofar.Sofar () Bool)
(declare-fun call_ticket3i.flby7 () Int)
(declare-fun call_ticket3i.ite5 () Int)
(declare-fun param_e4 () Bool)
(declare-fun call_ticket3i.ite16 () Int)
(declare-fun call_ticket3i.ite32 () Int)
(declare-fun call_ticket3i.flby () Int)
(declare-fun call_ticket3i.ite30 () Int)
(declare-fun call_ticket3i.ite13 () Int)
(declare-fun call_ticket3i.ite34 () Int)
(declare-fun call_ticket3i.ite20 () Int)
(declare-fun erreur_ticket3i () Bool)
(declare-fun call_ticket3i.ite11 () Int)
(declare-fun param_e2 () Bool)
(declare-fun call_ticket3i.a3 () Int)
(declare-fun param_init_t () Int)
(declare-fun param_e3 () Bool)
(declare-fun call_ticket3i.ite37 () Int)
(declare-fun param_init_a2 () Int)
(declare-fun call_ticket3i.ite21 () Int)
(declare-fun param_e9 () Bool)
(declare-fun env () Bool)
(declare-fun call_ticket3i.flby6 () Int)
(declare-fun call_ticket3i.ite23 () Int)
(declare-fun call_ticket3i.p2 () Int)
(declare-fun call_ticket3i.g3 () Bool)
(declare-fun param_e1 () Bool)
(declare-fun call_ticket3i.a1 () Int)
(declare-fun call_ticket3i.p1 () Int)
(declare-fun call_ticket3i.g8 () Bool)
(declare-fun call_ticket3i.ite15 () Int)
(declare-fun a2 () Int)
(declare-fun call_ticket3i.ite29 () Int)
(declare-fun call_ticket3i.ite27 () Int)
(declare-fun call_ticket3i.ite3 () Int)
(declare-fun call_ticket3i.flby3 () Int)
(declare-fun call_ticket3i.ite26 () Int)
(declare-fun s () Int)
(declare-fun call_ticket3i.ite17 () Int)
(declare-fun param_e6 () Bool)
(declare-fun call_ticket3i.ite6 () Int)
(declare-fun call_ticket3i.flby8 () Int)
(declare-fun call_ticket3i.g1 () Bool)
(declare-fun call_ticket3i.flby5 () Int)
(declare-fun call_ticket3i.ite9 () Int)
(declare-fun call_ticket3i.ite31 () Int)
(declare-fun call_ticket3i.p3 () Int)
(declare-fun call_ticket3i.ite35 () Int)
(declare-fun param_e5 () Bool)
(declare-fun call_ticket3i.flby4 () Int)
(declare-fun call_ticket3i.g6 () Bool)
(declare-fun t () Int)
(declare-fun call_ticket3i.ite12 () Int)
(declare-fun call_ticket3i.ite19 () Int)
(declare-fun call_ticket3i.ite25 () Int)
(declare-fun call_ticket3i.flby2 () Int)
(declare-fun call_ticket3i.ite8 () Int)
(declare-fun param_e8 () Bool)
(declare-fun call_ticket3i.ite22 () Int)
(declare-fun call_ticket3i.ite2 () Int)
(declare-fun call_ticket3i.g4 () Bool)
(declare-fun call_ticket3i.ite10 () Int)
(declare-fun call_ticket3i.ite33 () Int)
(declare-fun p2 () Int)
(declare-fun call_ticket3i.ite18 () Int)
(declare-fun call_ticket3i.a2 () Int)
(declare-fun call_ticket3i.ite () Bool)
(declare-fun call_Sofar.flby () Bool)
(declare-fun _OK_ () Bool)
(declare-fun call_ticket3i.g7 () Bool)
(declare-fun a3 () Int)
(declare-fun call_ticket3i.ite24 () Int)
(declare-fun call_ticket3i.erreur_ticket3i () Bool)
(declare-fun call_ticket3i.ite14 () Int)
(declare-fun param_init_a1 () Int)
(declare-fun param_e7 () Bool)
(declare-fun call_ticket3i.ite28 () Int)
(declare-fun call_ticket3i.s () Int)
(declare-fun call_excludes9.excludes () Bool)
(define-fun .def_1279 () Bool (= call_Sofar.flby call_Sofar.Sofar))
(define-fun .def_1136 () Bool (not param_e2))
(define-fun .def_944 () Bool (not param_e3))
(define-fun .def_1260 () Bool (and .def_944 .def_1136))
(define-fun .def_951 () Bool (not param_e4))
(define-fun .def_1261 () Bool (and .def_951 .def_1260))
(define-fun .def_1168 () Bool (not param_e5))
(define-fun .def_1262 () Bool (and .def_1168 .def_1261))
(define-fun .def_958 () Bool (not param_e6))
(define-fun .def_1263 () Bool (and .def_958 .def_1262))
(define-fun .def_914 () Bool (not param_e7))
(define-fun .def_1264 () Bool (and .def_914 .def_1263))
(define-fun .def_1082 () Bool (not param_e8))
(define-fun .def_1265 () Bool (and .def_1082 .def_1264))
(define-fun .def_925 () Bool (not param_e9))
(define-fun .def_1266 () Bool (and .def_925 .def_1265))
(define-fun .def_937 () Bool (not param_e1))
(define-fun .def_1267 () Bool (or .def_937 .def_1266))
(define-fun .def_1252 () Bool (and param_e1 .def_1136))
(define-fun .def_1253 () Bool (and .def_944 .def_1252))
(define-fun .def_1254 () Bool (and .def_951 .def_1253))
(define-fun .def_1255 () Bool (and .def_1168 .def_1254))
(define-fun .def_1256 () Bool (and .def_958 .def_1255))
(define-fun .def_1257 () Bool (and .def_914 .def_1256))
(define-fun .def_1258 () Bool (and .def_1082 .def_1257))
(define-fun .def_1259 () Bool (and .def_925 .def_1258))
(define-fun .def_1268 () Bool (or .def_1259 .def_1267))
(define-fun .def_1244 () Bool (and .def_937 param_e2))
(define-fun .def_1245 () Bool (and .def_944 .def_1244))
(define-fun .def_1246 () Bool (and .def_951 .def_1245))
(define-fun .def_1247 () Bool (and .def_1168 .def_1246))
(define-fun .def_1248 () Bool (and .def_958 .def_1247))
(define-fun .def_1249 () Bool (and .def_914 .def_1248))
(define-fun .def_1250 () Bool (and .def_1082 .def_1249))
(define-fun .def_1251 () Bool (and .def_925 .def_1250))
(define-fun .def_1269 () Bool (or .def_1251 .def_1268))
(define-fun .def_1209 () Bool (and .def_937 .def_1136))
(define-fun .def_1237 () Bool (and param_e3 .def_1209))
(define-fun .def_1238 () Bool (and .def_951 .def_1237))
(define-fun .def_1239 () Bool (and .def_1168 .def_1238))
(define-fun .def_1240 () Bool (and .def_958 .def_1239))
(define-fun .def_1241 () Bool (and .def_914 .def_1240))
(define-fun .def_1242 () Bool (and .def_1082 .def_1241))
(define-fun .def_1243 () Bool (and .def_925 .def_1242))
(define-fun .def_1270 () Bool (or .def_1243 .def_1269))
(define-fun .def_1210 () Bool (and .def_944 .def_1209))
(define-fun .def_1231 () Bool (and param_e4 .def_1210))
(define-fun .def_1232 () Bool (and .def_1168 .def_1231))
(define-fun .def_1233 () Bool (and .def_958 .def_1232))
(define-fun .def_1234 () Bool (and .def_914 .def_1233))
(define-fun .def_1235 () Bool (and .def_1082 .def_1234))
(define-fun .def_1236 () Bool (and .def_925 .def_1235))
(define-fun .def_1271 () Bool (or .def_1236 .def_1270))
(define-fun .def_1211 () Bool (and .def_951 .def_1210))
(define-fun .def_1226 () Bool (and param_e5 .def_1211))
(define-fun .def_1227 () Bool (and .def_958 .def_1226))
(define-fun .def_1228 () Bool (and .def_914 .def_1227))
(define-fun .def_1229 () Bool (and .def_1082 .def_1228))
(define-fun .def_1230 () Bool (and .def_925 .def_1229))
(define-fun .def_1272 () Bool (or .def_1230 .def_1271))
(define-fun .def_1212 () Bool (and .def_1168 .def_1211))
(define-fun .def_1222 () Bool (and param_e6 .def_1212))
(define-fun .def_1223 () Bool (and .def_914 .def_1222))
(define-fun .def_1224 () Bool (and .def_1082 .def_1223))
(define-fun .def_1225 () Bool (and .def_925 .def_1224))
(define-fun .def_1273 () Bool (or .def_1225 .def_1272))
(define-fun .def_1213 () Bool (and .def_958 .def_1212))
(define-fun .def_1219 () Bool (and param_e7 .def_1213))
(define-fun .def_1220 () Bool (and .def_1082 .def_1219))
(define-fun .def_1221 () Bool (and .def_925 .def_1220))
(define-fun .def_1274 () Bool (or .def_1221 .def_1273))
(define-fun .def_1214 () Bool (and .def_914 .def_1213))
(define-fun .def_1217 () Bool (and param_e8 .def_1214))
(define-fun .def_1218 () Bool (and .def_925 .def_1217))
(define-fun .def_1275 () Bool (or .def_1218 .def_1274))
(define-fun .def_1215 () Bool (and .def_1082 .def_1214))
(define-fun .def_1216 () Bool (and param_e9 .def_1215))
(define-fun .def_1276 () Bool (or .def_1216 .def_1275))
(define-fun .def_1277 () Bool (= call_excludes9.excludes .def_1276))
(define-fun .def_1207 () Bool (= call_ticket3i.erreur_ticket3i call_ticket3i.ite))
(define-fun .def_1205 () Bool (= call_ticket3i.flby8 call_ticket3i.a3))
(define-fun .def_1203 () Bool (= call_ticket3i.flby7 call_ticket3i.a2))
(define-fun .def_1201 () Bool (= call_ticket3i.flby6 call_ticket3i.a1))
(define-fun .def_1199 () Bool (= call_ticket3i.flby5 call_ticket3i.s))
(define-fun .def_1197 () Bool (= call_ticket3i.flby4 call_ticket3i.t))
(define-fun .def_1195 () Bool (= call_ticket3i.flby3 call_ticket3i.p3))
(define-fun .def_1193 () Bool (= call_ticket3i.flby2 call_ticket3i.p2))
(define-fun .def_1190 () Bool (= call_ticket3i.flby call_ticket3i.p1))
(define-fun .def_1184 () Bool (<= 3 call_ticket3i.p3))
(define-fun .def_1182 () Bool (<= 3 call_ticket3i.p2))
(define-fun .def_1181 () Bool (<= 3 call_ticket3i.p1))
(define-fun .def_1183 () Bool (or .def_1181 .def_1182))
(define-fun .def_1185 () Bool (or .def_1183 .def_1184))
(define-fun .def_1187 () Bool (not .def_1185))
(define-fun .def_1188 () Bool (or call_ticket3i.ite .def_1187))
(define-fun .def_1180 () Bool (not call_ticket3i.ite))
(define-fun .def_1186 () Bool (or .def_1180 .def_1185))
(define-fun .def_1189 () Bool (and .def_1186 .def_1188))
(define-fun .def_1191 () Bool (and .def_1189 .def_1190))
(define-fun .def_1175 () Bool (= call_ticket3i.ite30 call_ticket3i.ite27))
(define-fun .def_1176 () Bool (or .def_958 .def_1175))
(define-fun .def_1172 () Bool (= call_ticket3i.ite29 call_ticket3i.ite30))
(define-fun .def_1173 () Bool (or param_e6 .def_1172))
(define-fun .def_1177 () Bool (and .def_1173 .def_1176))
(define-fun .def_1167 () Bool (= call_ticket3i.ite9 call_ticket3i.ite12))
(define-fun .def_1169 () Bool (or .def_1167 .def_1168))
(define-fun .def_1164 () Bool (= call_ticket3i.ite11 call_ticket3i.ite12))
(define-fun .def_1166 () Bool (or .def_1164 param_e5))
(define-fun .def_1170 () Bool (and .def_1166 .def_1169))
(define-fun .def_1160 () Bool (= call_ticket3i.ite23 call_ticket3i.ite24))
(define-fun .def_1161 () Bool (or param_e4 .def_1160))
(define-fun .def_1157 () Bool (= call_ticket3i.ite24 call_ticket3i.ite21))
(define-fun .def_1158 () Bool (or .def_951 .def_1157))
(define-fun .def_1153 () Bool (= call_ticket3i.ite8 call_ticket3i.ite13))
(define-fun .def_1154 () Bool (or .def_951 .def_1153))
(define-fun .def_1151 () Bool (= call_ticket3i.ite13 call_ticket3i.ite12))
(define-fun .def_1152 () Bool (or param_e4 .def_1151))
(define-fun .def_1155 () Bool (and .def_1152 .def_1154))
(define-fun .def_1159 () Bool (and .def_1155 .def_1158))
(define-fun .def_1162 () Bool (and .def_1159 .def_1161))
(define-fun .def_1145 () Bool (= call_ticket3i.ite31 call_ticket3i.ite26))
(define-fun .def_1146 () Bool (or .def_944 .def_1145))
(define-fun .def_1142 () Bool (= call_ticket3i.ite31 call_ticket3i.ite30))
(define-fun .def_1143 () Bool (or param_e3 .def_1142))
(define-fun .def_1147 () Bool (and .def_1143 .def_1146))
(define-fun .def_1135 () Bool (= call_ticket3i.ite3 call_ticket3i.ite6))
(define-fun .def_1137 () Bool (or .def_1135 .def_1136))
(define-fun .def_1132 () Bool (= call_ticket3i.ite5 call_ticket3i.ite6))
(define-fun .def_1134 () Bool (or .def_1132 param_e2))
(define-fun .def_1138 () Bool (and .def_1134 .def_1137))
(define-fun .def_1128 () Bool (= call_ticket3i.ite25 call_ticket3i.ite24))
(define-fun .def_1129 () Bool (or param_e1 .def_1128))
(define-fun .def_1124 () Bool (= call_ticket3i.ite20 call_ticket3i.ite25))
(define-fun .def_1125 () Bool (or .def_937 .def_1124))
(define-fun .def_1119 () Bool (= call_ticket3i.ite2 call_ticket3i.ite7))
(define-fun .def_1120 () Bool (or .def_937 .def_1119))
(define-fun .def_1117 () Bool (= call_ticket3i.ite7 call_ticket3i.ite6))
(define-fun .def_1118 () Bool (or param_e1 .def_1117))
(define-fun .def_1121 () Bool (and .def_1118 .def_1120))
(define-fun .def_1126 () Bool (and .def_1121 .def_1125))
(define-fun .def_1130 () Bool (and .def_1126 .def_1129))
(define-fun .def_1113 () Bool (= env call_Sofar.Sofar))
(define-fun .def_1110 () Bool (= erreur_ticket3i call_ticket3i.erreur_ticket3i))
(define-fun .def_1106 () Bool (= a3 call_ticket3i.a3))
(define-fun .def_1102 () Bool (= a2 call_ticket3i.a2))
(define-fun .def_1098 () Bool (= a1 call_ticket3i.a1))
(define-fun .def_1094 () Bool (= s call_ticket3i.s))
(define-fun .def_1090 () Bool (= call_ticket3i.t t))
(define-fun .def_1087 () Bool (= p3 call_ticket3i.p3))
(define-fun .def_1081 () Bool (= call_ticket3i.ite15 call_ticket3i.ite18))
(define-fun .def_1083 () Bool (or .def_1081 .def_1082))
(define-fun .def_1078 () Bool (= call_ticket3i.ite17 call_ticket3i.ite18))
(define-fun .def_1080 () Bool (or .def_1078 param_e8))
(define-fun .def_1084 () Bool (and .def_1080 .def_1083))
(define-fun .def_1076 () Bool (= p2 call_ticket3i.p2))
(define-fun .def_1072 () Bool (= p1 call_ticket3i.p1))
(define-fun .def_1066 () Bool (= call_ticket3i.ite14 call_ticket3i.ite19))
(define-fun .def_1067 () Bool (or .def_914 .def_1066))
(define-fun .def_1064 () Bool (= call_ticket3i.ite19 call_ticket3i.ite18))
(define-fun .def_1065 () Bool (or param_e7 .def_1064))
(define-fun .def_1068 () Bool (and .def_1065 .def_1067))
(define-fun .def_1058 () Bool (<= p3 3))
(define-fun .def_1057 () Bool (<= 0 p3))
(define-fun .def_1059 () Bool (and .def_1057 .def_1058))
(define-fun .def_1055 () Bool (not env))
(define-fun .def_1060 () Bool (or .def_1055 .def_1059))
(define-fun .def_1061 () Bool (= _OK_ .def_1060))
(define-fun .def_1069 () Bool (and .def_1061 .def_1068))
(define-fun .def_1073 () Bool (and .def_1069 .def_1072))
(define-fun .def_1077 () Bool (and .def_1073 .def_1076))
(define-fun .def_1085 () Bool (and .def_1077 .def_1084))
(define-fun .def_1088 () Bool (and .def_1085 .def_1087))
(define-fun .def_1091 () Bool (and .def_1088 .def_1090))
(define-fun .def_1095 () Bool (and .def_1091 .def_1094))
(define-fun .def_1099 () Bool (and .def_1095 .def_1098))
(define-fun .def_1103 () Bool (and .def_1099 .def_1102))
(define-fun .def_1107 () Bool (and .def_1103 .def_1106))
(define-fun .def_1111 () Bool (and .def_1107 .def_1110))
(define-fun .def_1114 () Bool (and .def_1111 .def_1113))
(define-fun .def_1131 () Bool (and .def_1114 .def_1130))
(define-fun .def_1139 () Bool (and .def_1131 .def_1138))
(define-fun .def_1148 () Bool (and .def_1139 .def_1147))
(define-fun .def_1163 () Bool (and .def_1148 .def_1162))
(define-fun .def_1171 () Bool (and .def_1163 .def_1170))
(define-fun .def_1178 () Bool (and .def_1171 .def_1177))
(define-fun .def_1192 () Bool (and .def_1178 .def_1191))
(define-fun .def_1194 () Bool (and .def_1192 .def_1193))
(define-fun .def_1196 () Bool (and .def_1194 .def_1195))
(define-fun .def_1198 () Bool (and .def_1196 .def_1197))
(define-fun .def_1200 () Bool (and .def_1198 .def_1199))
(define-fun .def_1202 () Bool (and .def_1200 .def_1201))
(define-fun .def_1204 () Bool (and .def_1202 .def_1203))
(define-fun .def_1206 () Bool (and .def_1204 .def_1205))
(define-fun .def_1208 () Bool (and .def_1206 .def_1207))
(define-fun .def_1278 () Bool (and .def_1208 .def_1277))
(define-fun .def_1280 () Bool (and .def_1278 .def_1279))
(define-fun .def_1048 () Bool (<= 0 param_init_t))
(define-fun .def_1046 () Bool (<= 0 param_init_a3))
(define-fun .def_1044 () Bool (<= 0 param_init_a2))
(define-fun .def_1041 () Bool (<= 0 param_init_a1))
(define-fun .def_1043 () Bool (and .def_1041 call_excludes9.excludes))
(define-fun .def_1045 () Bool (and .def_1043 .def_1044))
(define-fun .def_1047 () Bool (and .def_1045 .def_1046))
(define-fun .def_1049 () Bool (and .def_1047 .def_1048))
(define-fun .def_1051 () Bool (= .def_1049 call_Sofar.flby))
(define-fun .def_1039 () Bool (= param_init_a3 call_ticket3i.flby8))
(define-fun .def_1035 () Bool (= param_init_a2 call_ticket3i.flby7))
(define-fun .def_1031 () Bool (= param_init_a1 call_ticket3i.flby6))
(define-fun .def_1027 () Bool (= call_ticket3i.t call_ticket3i.flby5))
(define-fun .def_1023 () Bool (= param_init_t call_ticket3i.flby4))
(define-fun .def_1019 () Bool (= call_ticket3i.flby3 0))
(define-fun .def_1016 () Bool (= call_ticket3i.flby2 0))
(define-fun .def_1013 () Bool (= call_ticket3i.flby 0))
(define-fun .def_1009 () Bool (= call_ticket3i.ite16 0))
(define-fun .def_1008 () Bool (not call_ticket3i.g9))
(define-fun .def_1010 () Bool (or .def_1008 .def_1009))
(define-fun .def_1004 () Bool (= call_ticket3i.ite15 2))
(define-fun .def_1002 () Bool (not call_ticket3i.g8))
(define-fun .def_1005 () Bool (or .def_1002 .def_1004))
(define-fun .def_998 () Bool (= call_ticket3i.ite14 1))
(define-fun .def_996 () Bool (not call_ticket3i.g7))
(define-fun .def_999 () Bool (or .def_996 .def_998))
(define-fun .def_992 () Bool (= call_ticket3i.ite10 0))
(define-fun .def_991 () Bool (not call_ticket3i.g6))
(define-fun .def_993 () Bool (or .def_991 .def_992))
(define-fun .def_987 () Bool (= call_ticket3i.ite9 2))
(define-fun .def_985 () Bool (not call_ticket3i.g5))
(define-fun .def_988 () Bool (or .def_985 .def_987))
(define-fun .def_981 () Bool (= call_ticket3i.ite8 1))
(define-fun .def_979 () Bool (not call_ticket3i.g4))
(define-fun .def_982 () Bool (or .def_979 .def_981))
(define-fun .def_975 () Bool (= call_ticket3i.ite4 0))
(define-fun .def_974 () Bool (not call_ticket3i.g3))
(define-fun .def_976 () Bool (or .def_974 .def_975))
(define-fun .def_970 () Bool (= call_ticket3i.ite3 2))
(define-fun .def_968 () Bool (not call_ticket3i.g2))
(define-fun .def_971 () Bool (or .def_968 .def_970))
(define-fun .def_964 () Bool (= call_ticket3i.ite2 1))
(define-fun .def_962 () Bool (not call_ticket3i.g1))
(define-fun .def_965 () Bool (or .def_962 .def_964))
(define-fun .def_956 () Bool (= call_ticket3i.ite10 call_ticket3i.ite11))
(define-fun .def_959 () Bool (or .def_956 .def_958))
(define-fun .def_949 () Bool (= call_ticket3i.ite35 call_ticket3i.ite34))
(define-fun .def_952 () Bool (or .def_949 .def_951))
(define-fun .def_942 () Bool (= call_ticket3i.ite4 call_ticket3i.ite5))
(define-fun .def_945 () Bool (or .def_942 .def_944))
(define-fun .def_935 () Bool (= call_ticket3i.ite33 call_ticket3i.ite32))
(define-fun .def_938 () Bool (or .def_935 .def_937))
(define-fun .def_929 () Bool (= call_ticket3i.ite16 call_ticket3i.ite17))
(define-fun .def_930 () Bool (or .def_925 .def_929))
(define-fun .def_923 () Bool (= call_ticket3i.ite28 call_ticket3i.ite29))
(define-fun .def_926 () Bool (or .def_923 .def_925))
(define-fun .def_931 () Bool (and .def_926 .def_930))
(define-fun .def_918 () Bool (= call_ticket3i.ite22 call_ticket3i.ite23))
(define-fun .def_919 () Bool (or .def_914 .def_918))
(define-fun .def_912 () Bool (= call_ticket3i.ite37 call_ticket3i.ite36))
(define-fun .def_915 () Bool (or .def_912 .def_914))
(define-fun .def_920 () Bool (and .def_915 .def_919))
(define-fun .def_932 () Bool (and .def_920 .def_931))
(define-fun .def_939 () Bool (and .def_932 .def_938))
(define-fun .def_946 () Bool (and .def_939 .def_945))
(define-fun .def_953 () Bool (and .def_946 .def_952))
(define-fun .def_960 () Bool (and .def_953 .def_959))
(define-fun .def_966 () Bool (and .def_960 .def_965))
(define-fun .def_972 () Bool (and .def_966 .def_971))
(define-fun .def_977 () Bool (and .def_972 .def_976))
(define-fun .def_983 () Bool (and .def_977 .def_982))
(define-fun .def_989 () Bool (and .def_983 .def_988))
(define-fun .def_994 () Bool (and .def_989 .def_993))
(define-fun .def_1000 () Bool (and .def_994 .def_999))
(define-fun .def_1006 () Bool (and .def_1000 .def_1005))
(define-fun .def_1011 () Bool (and .def_1006 .def_1010))
(define-fun .def_1014 () Bool (and .def_1011 .def_1013))
(define-fun .def_1017 () Bool (and .def_1014 .def_1016))
(define-fun .def_1020 () Bool (and .def_1017 .def_1019))
(define-fun .def_1024 () Bool (and .def_1020 .def_1023))
(define-fun .def_1028 () Bool (and .def_1024 .def_1027))
(define-fun .def_1032 () Bool (and .def_1028 .def_1031))
(define-fun .def_1036 () Bool (and .def_1032 .def_1035))
(define-fun .def_1040 () Bool (and .def_1036 .def_1039))
(define-fun .def_1052 () Bool (and .def_1040 .def_1051))
(define-fun .def_1281 () Bool (and .def_1052 .def_1280))
(assert .def_1281)
